p cnf 1115 1292
c ind 781 786 787 788 789 790 792 793 794 795 0
c ind 796 797 798 799 800 801 802 803 804 805 0
c ind 806 807 808 809 810 811 816 817 823 824 0
c ind 825 826 827 828 829 830 831 832 833 834 0
c ind 835 836 837 846 847 848 849 852 853 854 0
c ind 855 856 857 860 861 862 863 864 865 874 0
c ind 875 876 877 880 881 882 883 884 885 888 0
c ind 889 890 891 892 893 894 895 896 897 898 0
c ind 900 901 902 903 904 905 906 907 908 909 0
c ind 910 911 912 913 914 915 916 917 918 919 0
c ind 920 922 924 925 926 927 928 929 930 931 0
c ind 932 933 937 938 939 940 941 943 945 946 0
c ind 947 948 949 950 951 952 953 954 960 961 0
c ind 972 973 974 975 977 978 980 982 986 991 0
c ind 992 993 994 995 996 997 998 999 1000 1001 0
c ind 1002 1003 1004 1005 1006 1008 1010 1011 1014 1015 0
c ind 1016 1017 1018 1022 1023 1024 1025 1026 1029 1030 0
c ind 1031 1032 1033 1034 1035 1036 1037 1038 1039 1040 0
c ind 1043 1044 1045 1046 1047 1051 1052 1053 1054 1055 0
c ind 1059 1060 1061 1062 1063 1066 1067 1068 1069 1071 0
c ind 1073 1074 1075 1077 1106 1091 1082 1086 1113 1090 0
c ind 1081 1085 1104 1105 1103 1112 1095 1096 1098 1094 0
c ind 1100 782 783 1080 1089 1097 1099 1102 1084 1108 0
c ind 1093 1111 1078 1088 1101 1083 1079 1092 1110 791 0
c ind 1076 1087 1107 959 1109 956 957 958 784 899 0
c ind 1072 785 1070 1064 1065 1058 1056 1057 1050 1048 0
c ind 1049 1027 1028 1042 1021 1019 1020 1041 1012 1013 0
c ind 1007 1009 979 981 987 988 989 990 984 985 0
c ind 942 944 965 966 968 969 970 971 962 963 0
c ind 964 967 976 983 936 934 935 955 921 923 0
c ind 780 812 815 813 814 820 822 819 821 878 0
c ind 818 879 873 886 887 869 851 858 859 866 0
c ind 867 868 870 871 845 872 838 841 850 839 0
c ind 840 842 843 844 1 0
c ret 606 607 608 609 610 611 612 613 614 615 0
c ret 616 617 618 619 620 621 622 623 624 625 0
c ret 626 627 628 629 630 631 632 633 634 635 0
c ret 636 637 638 639 640 641 642 643 644 645 0
c ret 646 647 648 649 650 651 652 653 654 655 0
c ret 656 657 658 659 660 661 662 663 664 665 0
c ret 666 667 668 669 670 671 672 673 674 675 0
c ret 676 677 678 679 680 681 682 683 684 685 0
c ret 686 687 688 689 690 691 692 693 694 695 0
c ret 696 697 698 699 700 701 702 703 704 705 0
c ret 706 707 708 709 710 711 712 713 714 715 0
c ret 716 717 718 719 720 721 722 723 724 725 0
c ret 726 727 728 729 730 731 732 733 734 735 0
c ret 736 737 738 739 740 741 742 743 744 301 0
c ret 307 308 309 310 311 312 313 314 315 316 0
c ret 317 318 319 320 321 745 322 746 323 324 0
c ret 747 325 748 326 327 328 329 330 331 332 0
c ret 333 334 335 336 337 338 749 750 339 340 0
c ret 341 751 342 343 752 302 344 345 346 347 0
c ret 348 349 350 351 753 352 353 354 355 356 0
c ret 754 357 755 358 756 359 757 360 361 362 0
c ret 363 364 365 366 367 368 369 370 371 758 0
c ret 372 373 374 375 376 377 759 760 378 379 0
c ret 761 380 762 381 382 383 384 303 385 386 0
c ret 387 388 389 390 391 392 393 394 395 396 0
c ret 397 763 398 764 399 765 400 401 766 402 0
c ret 403 404 405 406 407 408 409 410 411 412 0
c ret 767 413 414 415 768 416 769 417 770 771 0
c ret 418 419 420 421 422 423 424 304 425 426 0
c ret 427 428 429 430 772 773 431 432 433 434 0
c ret 435 774 436 437 438 439 440 441 442 443 0
c ret 444 775 445 446 447 448 449 776 777 450 0
c ret 451 778 452 453 779 454 455 456 457 458 0
c ret 459 460 461 462 463 464 465 466 467 468 0
c ret 469 470 471 472 473 474 475 476 477 478 0
c ret 479 480 481 482 483 484 485 486 487 488 0
c ret 489 490 491 492 493 494 495 305 496 497 0
c ret 498 499 500 501 502 503 504 505 506 507 0
c ret 508 509 510 511 512 513 514 515 516 517 0
c ret 518 519 520 521 522 523 524 525 526 527 0
c ret 528 529 530 531 532 533 534 306 535 536 0
c ret 537 538 539 540 541 542 543 544 545 546 0
c ret 547 548 549 550 551 552 553 554 555 556 0
c ret 557 558 559 560 561 562 563 564 565 566 0
c ret 567 568 569 570 571 572 573 574 575 576 0
c ret 577 578 579 580 581 582 583 584 585 586 0
c ret 587 588 589 590 591 592 593 594 595 596 0
c ret 597 598 599 600 601 602 603 604 605 0
2 3 -295 -299 0
2 131 -295 -299 0
-2 299 0
-2 295 0
-2 -3 -131 0
3 -4 -59 121 0
3 4 59 -111 0
3 4 59 121 0
3 -4 -59 -111 0
-3 4 -59 0
-3 -4 59 0
-3 111 -121 0
4 -5 -18 0
4 -5 55 0
-4 5 0
-4 18 -55 0
5 6 12 0
-5 -6 0
-5 -12 0
6 -7 -8 0
6 -7 -9 -10 0
-6 7 0
-6 8 10 0
-6 8 9 0
7 1041 0
7 -1042 1048 0
7 1042 1049 0
-7 -1041 1042 -1049 0
-7 -1041 -1042 -1048 0
8 1041 0
8 -1042 -1048 0
8 1042 -1049 0
-8 -1041 1042 1049 0
-8 -1041 -1042 1048 0
9 1050 1057 0
9 -1050 1056 0
-9 -1050 -1056 0
-9 1050 -1057 0
10 11 0
-10 -11 0
8 -9 11 0
-8 -11 0
9 -11 0
12 -13 -14 0
12 -14 -17 0
-12 14 0
-12 13 17 0
13 1012 0
13 -1013 -1019 0
13 1013 -1020 0
-13 -1012 1013 1020 0
-13 -1012 -1013 1019 0
14 -15 -16 0
-13 14 -16 0
-14 16 0
13 -14 15 0
-13 15 0
15 1021 -1028 0
15 -1021 -1027 0
13 -15 -1021 1027 0
13 -15 1021 1028 0
16 1012 0
16 -1013 1019 0
16 1013 1020 0
-16 -1012 1013 -1020 0
-16 -1012 -1013 -1019 0
-13 17 0
17 -1021 1027 0
17 1021 1028 0
13 -17 -1021 -1027 0
13 -17 1021 -1028 0
18 -19 -54 -1091 0
18 19 -20 -54 0
-18 54 0
-18 -19 1091 0
-18 19 20 0
19 1007 -1009 0
-19 -1007 0
-19 1009 0
20 -21 -1090 0
20 21 -22 0
-20 -21 1090 0
-20 21 22 0
21 979 -981 0
-21 -979 0
-21 981 0
22 23 46 53 0
22 23 46 -49 0
-22 -23 0
-22 -46 0
-22 49 -53 0
23 -44 780 -955 0
23 24 780 955 0
-23 -780 0
-23 44 -955 0
-23 -24 955 0
24 -25 -1087 0
-24 1087 0
-24 25 0
25 -26 40 0
-25 26 0
-25 -40 0
26 -33 34 0
26 27 34 -845 0
-26 -34 0
-26 -27 33 0
-26 33 845 0
27 28 0
27 31 -844 0
27 31 850 0
-27 -28 -31 0
-27 -28 844 -850 0
28 -29 30 -838 -845 0
-28 29 0
-28 -30 0
-28 838 0
-28 845 0
29 839 840 841 0
-29 -839 0
-29 -841 0
-29 -840 0
30 842 -843 0
-30 -842 0
-30 843 0
31 32 844 850 -851 0
-31 -844 0
-31 -32 0
-31 851 0
-31 -850 0
32 858 859 0
-32 -858 0
-32 -859 0
29 33 -838 0
30 33 -838 -844 0
-33 838 0
-29 -33 844 0
-29 -30 -33 0
34 36 39 0
34 36 -38 0
34 35 36 0
-34 -36 0
-34 -35 38 -39 0
35 867 868 869 0
-35 -867 0
-35 -869 0
-35 -868 0
35 36 -866 0
36 37 -866 -872 0
-36 866 0
-35 -36 872 0
-35 -36 -37 0
37 870 -871 0
-37 -870 0
-37 871 0
38 878 879 0
38 878 886 887 0
-38 -878 0
-38 -879 -886 0
-38 -879 -887 0
37 39 -866 872 -873 0
-39 873 0
-37 -39 0
-39 866 0
-39 -872 0
40 -41 -812 0
40 -43 -812 0
40 -42 -812 0
-40 812 0
-40 41 42 43 0
41 -813 814 815 0
-41 813 0
-41 -815 0
-41 -814 0
42 818 821 822 0
-42 -818 0
-42 -822 0
-42 -821 0
43 -818 819 820 0
-43 818 0
-43 -820 0
-43 -819 0
44 -45 1088 0
24 44 45 0
-44 -45 -1088 0
-24 -44 45 0
45 921 -923 0
-45 -921 0
-45 923 0
46 -47 -48 -965 0
46 -47 -48 -966 0
-46 48 0
-46 47 0
-46 965 966 0
47 968 969 970 971 0
-47 -971 0
-47 -970 0
-47 -968 0
-47 -969 0
48 -962 -963 -964 967 0
-48 964 0
-48 -967 0
-48 962 0
-48 963 0
44 49 -50 0
-44 -49 0
-49 50 0
50 51 52 0
-50 -51 0
-50 -52 0
51 934 935 936 0
-51 -934 0
-51 -936 0
-51 -935 0
52 942 -944 0
-52 -942 0
-52 944 0
52 53 -780 0
53 -780 1089 0
-53 780 0
-52 -53 -1089 0
54 -976 983 0
-54 976 0
-54 -983 0
55 56 -976 0
20 22 55 0
22 55 56 0
20 55 -976 0
-22 -55 976 0
-20 -55 -56 0
56 58 -976 -983 0
56 57 -976 -983 0
-56 976 0
-56 983 0
-56 -57 -58 0
57 987 -988 -989 990 0
-57 -987 0
-57 -990 0
-57 989 0
-57 988 0
58 -984 985 0
-58 984 0
-58 -985 0
59 -60 -68 0
59 -60 107 0
-59 60 0
-59 68 -107 0
60 -61 64 0
60 -61 63 67 0
-60 61 0
-60 -63 -64 0
-60 -64 -67 0
61 -62 -562 -591 0
-61 562 0
-61 591 0
-61 62 0
62 -620 -649 -678 -707 0
-62 707 0
-62 620 0
-62 678 0
-62 649 0
63 533 0
63 -534 -540 0
63 534 -541 0
-63 -533 534 541 0
-63 -533 -534 540 0
64 -65 66 0
-64 65 0
-64 -66 0
65 533 0
65 -534 540 0
65 534 541 0
-65 -533 534 -541 0
-65 -533 -534 -540 0
63 66 -542 548 0
63 66 542 549 0
-63 -66 0
-66 542 -549 0
-66 -542 -548 0
-63 67 0
67 -542 548 0
67 542 549 0
63 -67 -542 -548 0
63 -67 542 -549 0
68 -69 -106 -757 0
68 69 -70 -106 0
-68 106 0
-68 -69 757 0
-68 69 70 0
69 528 -530 0
-69 -528 0
-69 530 0
70 -71 -756 0
70 71 -72 0
-70 -71 756 0
-70 71 72 0
71 500 -502 0
-71 -500 0
-71 502 0
72 73 98 105 0
72 73 98 -101 0
-72 -73 0
-72 -98 0
-72 101 -105 0
73 -96 301 -476 0
73 74 301 476 0
-73 -301 0
-73 96 -476 0
-73 -74 476 0
74 -75 -753 0
-74 753 0
-74 75 0
75 76 -80 0
-75 -76 0
-75 80 0
76 -77 -333 0
76 -79 -333 0
76 -78 -333 0
-76 333 0
-76 77 78 79 0
77 -334 335 336 0
-77 334 0
-77 -336 0
-77 -335 0
78 339 342 343 0
-78 -339 0
-78 -343 0
-78 -342 0
79 -339 340 341 0
-79 339 0
-79 -341 0
-79 -340 0
80 81 -88 0
80 81 91 -366 0
-80 -81 0
-80 88 -91 0
-80 88 366 0
81 -82 85 0
81 85 387 0
-81 -85 0
-81 82 -387 0
82 -84 390 393 0
82 -83 -84 390 0
-82 -390 0
-82 84 0
-82 83 -393 0
83 391 -392 0
-83 -391 0
-83 392 0
84 388 389 0
-84 -388 0
-84 -389 0
83 -84 85 86 -87 0
84 -85 0
-85 -86 0
-83 -85 0
-85 87 0
86 399 400 0
86 399 407 408 0
-86 -399 0
-86 -400 -407 0
-86 -400 -408 0
87 -387 390 393 -394 0
-87 394 0
-87 -393 0
-87 387 0
-87 -390 0
88 89 -359 0
88 90 -359 -365 0
-88 359 0
-88 -89 365 0
-88 -89 -90 0
89 360 361 362 0
-89 -360 0
-89 -362 0
-89 -361 0
90 363 -364 0
-90 -363 0
-90 364 0
91 92 94 0
-91 -92 0
-91 -94 0
92 -93 365 -371 0
-92 93 0
-92 371 0
-92 -365 0
-89 90 93 -359 -366 0
89 -93 0
-90 -93 0
-93 359 0
-93 366 0
-93 94 -95 -379 0
-93 94 -95 -380 0
-94 95 0
93 -94 0
-94 379 380 0
95 365 371 -372 0
-95 372 0
-95 -371 0
-95 -365 0
96 -97 754 0
74 96 97 0
-96 -97 -754 0
-74 -96 97 0
97 442 -444 0
-97 -442 0
-97 444 0
98 -99 -100 -486 0
98 -99 -100 -487 0
-98 100 0
-98 99 0
-98 486 487 0
99 489 490 491 492 0
-99 -492 0
-99 -491 0
-99 -489 0
-99 -490 0
100 -483 -484 -485 488 0
-100 485 0
-100 -488 0
-100 483 0
-100 484 0
96 101 -102 0
-96 -101 0
-101 102 0
102 103 104 0
-102 -103 0
-102 -104 0
103 455 456 457 0
-103 -455 0
-103 -457 0
-103 -456 0
104 463 -465 0
-104 -463 0
-104 465 0
104 105 -301 0
105 -301 755 0
-105 301 0
-104 -105 -755 0
106 -497 504 0
-106 497 0
-106 -504 0
107 108 -497 0
70 72 107 0
72 107 108 0
70 107 -497 0
-72 -107 497 0
-70 -107 -108 0
108 110 -497 -504 0
108 109 -497 -504 0
-108 497 0
-108 504 0
-108 -109 -110 0
109 -505 506 0
-109 505 0
-109 -506 0
110 508 -509 -510 511 0
-110 -508 0
-110 -511 0
-110 510 0
-110 509 0
-5 111 -112 0
-5 111 120 0
5 -111 0
-111 112 -120 0
19 -54 112 -113 0
-19 -54 112 -1113 0
54 -112 0
19 -112 113 0
-19 -112 1113 0
-21 113 -1112 0
21 113 -114 0
-21 -113 1112 0
21 -113 114 0
46 114 115 119 0
46 114 115 -118 0
-46 -114 0
-114 -115 0
-114 118 -119 0
115 -117 780 -955 0
115 116 780 955 0
-115 -780 0
-115 117 -955 0
-115 -116 955 0
-25 116 -1109 0
-116 1109 0
25 -116 0
-45 117 1110 0
45 116 117 0
-45 -117 -1110 0
45 -116 -117 0
-50 117 118 0
50 -118 0
-117 -118 0
52 119 -780 0
119 -780 1111 0
-119 780 0
-52 -119 -1111 0
113 120 -976 0
56 114 120 0
113 114 120 0
56 120 -976 0
-56 -113 -120 0
-114 -120 976 0
-60 121 -122 0
-60 121 130 0
60 -121 0
-121 122 -130 0
69 -106 122 -123 0
-69 -106 122 -779 0
106 -122 0
69 -122 123 0
-69 -122 779 0
-71 123 -778 0
71 123 -124 0
-71 -123 778 0
71 -123 124 0
98 124 125 129 0
98 124 125 -128 0
-98 -124 0
-124 -125 0
-124 128 -129 0
125 -127 301 -476 0
125 126 301 476 0
-125 -301 0
-125 127 -476 0
-125 -126 476 0
-75 126 -775 0
-126 775 0
75 -126 0
-97 127 776 0
97 126 127 0
-97 -127 -776 0
97 -126 -127 0
-102 127 128 0
102 -128 0
-127 -128 0
104 129 -301 0
129 -301 777 0
-129 301 0
-104 -129 -777 0
123 130 -497 0
108 124 130 0
123 124 130 0
108 130 -497 0
-108 -123 -130 0
-124 -130 497 0
131 132 141 -150 -274 0
131 -132 -141 -150 -274 0
-131 274 0
-131 -132 141 0
-131 150 0
-131 132 -141 0
-5 132 -133 0
-5 132 140 0
5 -132 0
-132 133 -140 0
19 -54 133 -134 0
-19 -54 133 -1086 0
54 -133 0
19 -133 134 0
-19 -133 1086 0
-21 134 -1085 0
21 134 -135 0
-21 -134 1085 0
21 -134 135 0
46 135 136 139 0
46 135 136 -138 0
-46 -135 0
-135 -136 0
-135 138 -139 0
136 -137 780 -955 0
25 136 780 955 0
-136 -780 0
-136 137 -955 0
-25 -136 955 0
-45 137 1083 0
25 45 137 0
-45 -137 -1083 0
-25 45 -137 0
-50 137 138 0
50 -138 0
-137 -138 0
52 139 -780 0
139 -780 1084 0
-139 780 0
-52 -139 -1084 0
134 140 -976 0
56 135 140 0
134 135 140 0
56 140 -976 0
-56 -134 -140 0
-135 -140 976 0
-60 141 -142 0
-60 141 149 0
60 -141 0
-141 142 -149 0
69 -106 142 -143 0
-69 -106 142 -752 0
106 -142 0
69 -142 143 0
-69 -142 752 0
-71 143 -751 0
71 143 -144 0
-71 -143 751 0
71 -143 144 0
98 144 145 148 0
98 144 145 -147 0
-98 -144 0
-144 -145 0
-144 147 -148 0
145 -146 301 -476 0
75 145 301 476 0
-145 -301 0
-145 146 -476 0
-75 -145 476 0
-97 146 749 0
75 97 146 0
-97 -146 -749 0
-75 97 -146 0
-102 146 147 0
102 -147 0
-146 -147 0
104 148 -301 0
148 -301 750 0
-148 301 0
-104 -148 -750 0
143 149 -497 0
108 144 149 0
143 144 149 0
108 149 -497 0
-108 -143 -149 0
-144 -149 497 0
150 -151 -200 -253 -264 0
150 -151 -200 253 264 0
-150 200 0
-150 253 -264 0
-150 151 0
-150 -253 264 0
151 -152 -168 191 0
151 152 168 -182 0
151 152 168 191 0
151 -152 -168 -182 0
-151 152 -168 0
-151 -152 168 0
-151 182 -191 0
152 -153 -154 0
152 -153 -166 0
152 -153 -165 0
-152 153 0
-152 154 165 166 0
12 153 -1041 0
-153 1041 0
-12 -153 0
154 157 -158 0
-50 154 155 -158 0
-154 158 0
-154 -155 -157 0
50 -154 -157 0
-45 155 1102 0
45 155 156 0
-45 -155 -1102 0
45 -155 -156 0
-25 156 -1101 0
-156 1101 0
25 -156 0
52 157 -780 0
157 -780 1103 0
-157 780 0
-52 -157 -1103 0
158 -159 164 0
-158 159 0
-158 -164 0
46 159 160 0
-46 -159 0
-159 -160 0
-21 160 -976 0
160 -161 -976 0
-160 976 0
21 -160 161 0
-19 161 162 983 0
-58 161 162 -983 0
-161 -162 0
58 -161 -983 0
19 -161 983 0
57 162 -163 0
-57 -162 0
-162 163 0
163 -976 -983 -984 985 0
-163 984 0
-163 -985 0
-163 976 0
-163 983 0
-155 164 780 -955 0
156 164 780 955 0
-164 -780 0
155 -164 -955 0
-156 -164 955 0
-19 -54 165 -1105 0
-165 1105 0
19 -165 0
54 -165 0
-21 166 -167 -1104 0
-166 1104 0
21 -166 0
-166 167 0
161 167 -976 0
-167 976 0
-161 -167 0
-60 168 -169 0
-60 168 -180 0
-60 168 -179 0
60 -168 0
-168 169 179 180 0
169 172 -173 0
-102 169 170 -173 0
-169 173 0
-169 -170 -172 0
102 -169 -172 0
-97 170 768 0
97 170 171 0
-97 -170 -768 0
97 -170 -171 0
-75 171 -767 0
-171 767 0
75 -171 0
104 172 -301 0
172 -301 769 0
-172 301 0
-104 -172 -769 0
173 -174 178 0
-173 174 0
-173 -178 0
98 174 175 0
-98 -174 0
-174 -175 0
-71 175 -497 0
175 -176 -497 0
-175 497 0
71 -175 176 0
-69 176 177 504 0
-109 176 177 -504 0
-176 -177 0
109 -176 -504 0
69 -176 504 0
-109 110 177 -497 -504 0
109 -177 0
-110 -177 0
-177 497 0
-177 504 0
-170 178 301 -476 0
171 178 301 476 0
-178 -301 0
170 -178 -476 0
-171 -178 476 0
-69 -106 179 -771 0
-179 771 0
69 -179 0
106 -179 0
-71 180 -181 -770 0
-180 770 0
71 -180 0
-180 181 0
176 181 -497 0
-181 497 0
-176 -181 0
-153 182 -183 0
-153 182 -190 0
-153 182 -189 0
153 -182 0
-182 183 189 190 0
183 186 -187 0
-50 183 184 -187 0
-183 187 0
-183 -184 -186 0
50 -183 -186 0
-45 184 1093 0
45 184 185 0
-45 -184 -1093 0
45 -184 -185 0
-25 185 -1092 0
-185 1092 0
25 -185 0
52 186 -780 0
186 -780 1094 0
-186 780 0
-52 -186 -1094 0
-159 187 188 0
159 -187 0
-187 -188 0
-184 188 780 -955 0
185 188 780 955 0
-188 -780 0
184 -188 -955 0
-185 -188 955 0
-19 -54 189 -1096 0
-189 1096 0
19 -189 0
54 -189 0
-21 -167 190 -1095 0
-190 1095 0
21 -190 0
167 -190 0
-61 191 198 -533 0
-61 191 -192 -533 0
-191 533 0
61 -191 0
-191 192 -198 0
192 195 -196 0
-102 192 193 -196 0
-192 196 0
-192 -193 -195 0
102 -192 -195 0
-97 193 759 0
97 193 194 0
-97 -193 -759 0
97 -193 -194 0
-75 194 -758 0
-194 758 0
75 -194 0
104 195 -301 0
195 -301 760 0
-195 301 0
-104 -195 -760 0
-174 196 197 0
174 -196 0
-196 -197 0
-193 197 301 -476 0
194 197 301 476 0
-197 -301 0
193 -197 -476 0
-194 -197 476 0
69 198 199 0
106 198 199 0
198 199 762 0
-198 -199 0
-69 -106 -198 -762 0
-71 -181 199 -761 0
-199 761 0
71 -199 0
181 -199 0
200 201 -202 -237 -245 0
200 201 -202 237 245 0
-200 -201 0
-200 237 -245 0
-200 202 0
-200 -237 245 0
-182 191 201 0
182 -201 0
-191 -201 0
202 -203 -215 -226 0
202 203 215 -226 0
-202 226 0
-202 -203 215 0
-202 203 -215 0
203 -207 301 0
103 203 -204 -207 0
-203 207 0
-203 204 -301 0
-103 -203 -301 0
204 420 -774 0
204 -205 -420 0
-204 205 -420 0
-204 420 774 0
-80 205 -736 0
76 -80 205 206 0
80 -205 0
-205 -206 736 0
-76 -205 736 0
206 312 773 0
-206 -312 0
-206 -773 0
207 208 -211 0
-207 -208 0
-207 211 0
204 208 209 0
204 205 208 0
205 208 -209 301 0
-204 -208 209 0
-205 -208 -209 0
-204 -208 -301 0
209 -210 476 477 480 0
-209 210 0
-209 -480 0
-209 -476 0
-209 -477 0
210 478 479 0
-210 -478 0
-210 -479 0
-61 211 -212 0
61 -211 0
-211 212 0
64 212 -213 0
67 212 -213 -533 0
-212 213 0
-64 -67 -212 0
-64 -212 533 0
98 213 214 0
98 110 213 0
98 213 497 0
-98 -213 0
-110 -213 -214 -497 0
-109 214 -504 0
-214 504 0
109 -214 0
215 216 -223 780 0
215 216 -222 -223 0
-215 223 0
-215 -216 0
-215 222 -780 0
216 217 221 0
216 219 221 0
216 217 -219 780 0
-216 -217 -219 0
-216 219 -221 0
-216 -221 -780 0
-26 217 -1070 0
-26 40 217 218 0
26 -217 0
-217 -218 1070 0
-40 -217 1070 0
218 791 1107 0
-218 -791 0
-218 -1107 0
219 -220 955 956 0
-219 220 0
-219 -956 0
-219 -955 0
220 957 958 959 0
-220 -957 0
-220 -959 0
-220 -958 0
221 899 -1108 0
-217 221 -899 0
217 -221 -899 0
-221 899 1108 0
51 -221 222 0
-51 -222 0
221 -222 0
6 223 -224 -225 0
6 14 223 -224 0
-6 -223 0
-223 224 0
-14 -223 225 0
46 163 224 0
46 57 224 0
-46 -224 0
-57 -163 -224 0
17 225 -1012 0
-225 1012 0
-17 -225 0
226 227 229 231 -232 0
226 -227 -229 231 -232 0
-226 -231 0
-226 227 -229 0
-226 232 0
-226 -227 229 0
-61 -80 -212 227 -228 0
-227 228 0
61 -227 0
212 -227 0
80 -227 0
228 301 -736 738 0
103 228 -736 738 0
-228 736 0
-228 -738 0
-103 -228 -301 0
-223 229 -230 780 0
51 -223 229 -230 0
-229 230 0
223 -229 0
-51 -229 -780 0
-26 230 -1070 1072 0
-230 1070 0
-230 -1072 0
26 -230 0
-7 -8 -10 231 0
-7 -9 -10 231 0
10 -231 0
7 -231 0
8 9 -231 0
16 232 -233 0
15 232 -233 0
17 232 -233 0
-232 233 0
-15 -16 -17 -232 0
27 34 233 -234 0
-33 34 233 -234 0
-233 234 0
-34 -233 0
-27 33 -233 0
40 -224 234 235 -236 0
224 -234 0
-234 -235 0
-40 -234 0
-234 236 0
-51 235 -780 0
-235 780 0
51 -235 0
236 -783 -784 0
236 -782 785 0
236 -782 -784 0
236 -783 785 0
-236 784 -785 0
-236 782 783 0
237 -241 780 0
51 237 238 -241 0
-237 241 0
-237 -238 -780 0
-51 -237 -780 0
238 239 -899 0
-230 238 899 1078 0
-238 899 -1078 0
-238 -239 -899 0
230 -238 899 0
-26 239 -240 0
26 -239 0
-239 240 0
240 -1070 -1072 0
40 240 1070 0
240 -1070 -1076 0
-40 -240 1070 0
-240 -1070 1072 1076 0
-223 241 -242 243 0
-223 238 241 243 0
223 -241 0
-241 -243 0
-238 -241 242 0
242 955 956 0
-242 -955 0
-242 -956 0
239 243 -244 0
220 -238 243 0
220 243 -244 0
-238 239 243 0
238 -243 244 0
-220 -239 -243 0
-219 244 780 0
-244 -780 0
219 -244 0
-211 245 246 0
211 -245 0
-245 -246 0
209 246 -247 0
246 251 252 0
246 -247 251 0
-246 247 -252 0
-209 -246 -251 0
-246 247 -251 0
247 248 -420 0
-80 247 -250 420 0
-247 -248 -420 0
80 -247 420 0
-247 250 420 0
-80 248 -249 0
80 -248 0
-248 249 0
249 -736 -738 0
76 249 736 0
249 -736 -742 0
-76 -249 736 0
-249 -736 738 742 0
250 -736 738 744 0
-250 736 0
-250 -744 0
-250 -738 0
209 251 301 0
-248 251 301 0
-251 -301 0
-209 248 -251 0
103 252 -301 0
-252 301 0
-103 -252 0
-60 175 253 254 0
-60 253 254 263 0
60 -253 0
-253 -254 0
-175 -253 -263 0
254 -256 257 0
71 254 255 257 0
-254 -257 0
-254 -255 256 0
-71 -254 256 0
-69 255 504 -766 0
69 -255 0
-255 766 0
-255 -504 0
71 256 497 0
256 497 765 0
177 256 497 0
-256 -497 0
-71 -177 -256 -765 0
98 257 258 262 0
98 257 258 -261 0
-98 -257 0
-257 -258 0
-257 261 -262 0
258 -260 301 -476 0
258 259 301 476 0
-258 -301 0
-258 260 -476 0
-258 -259 476 0
-75 259 -305 0
-259 305 0
75 -259 0
-97 260 763 0
97 259 260 0
-97 -260 -763 0
97 -259 -260 0
-102 260 261 0
102 -261 0
-260 -261 0
104 262 -301 0
262 -301 764 0
-262 301 0
-104 -262 -764 0
-176 255 263 0
255 263 765 0
-255 -263 0
176 -263 -765 0
-5 160 264 265 0
-5 264 265 273 0
5 -264 0
-264 -265 0
-160 -264 -273 0
265 267 976 0
21 265 266 267 0
-265 -267 0
-265 -266 -976 0
-21 -265 -976 0
-19 266 983 -1100 0
19 -266 0
-266 1100 0
-266 -983 0
46 267 268 272 0
46 267 268 -271 0
-46 -267 0
-267 -268 0
-267 271 -272 0
268 -270 780 -955 0
268 269 780 955 0
-268 -780 0
-268 270 -955 0
-268 -269 955 0
-25 269 -784 0
-269 784 0
25 -269 0
-45 270 1097 0
45 269 270 0
-45 -270 -1097 0
45 -269 -270 0
-50 270 271 0
50 -271 0
-270 -271 0
52 272 -780 0
272 -780 1098 0
-272 780 0
-52 -272 -1098 0
-161 266 273 0
266 273 1099 0
-266 -273 0
161 -273 -1099 0
111 274 -275 -285 0
-121 274 275 285 0
111 274 275 285 0
-121 274 -275 -285 0
-274 275 -285 0
-274 -275 285 0
-111 121 -274 0
-5 275 -276 0
-5 275 284 0
5 -275 0
-275 276 -284 0
19 -54 276 -277 0
-19 -54 276 -1082 0
54 -276 0
19 -276 277 0
-19 -276 1082 0
-21 277 -1081 0
21 277 -278 0
-21 -277 1081 0
21 -277 278 0
46 278 279 283 0
46 278 279 -282 0
-46 -278 0
-278 -279 0
-278 282 -283 0
279 280 -780 1080 0
52 279 280 -780 0
-279 780 0
-279 -280 0
-52 -279 -1080 0
-50 280 281 0
50 -280 0
-280 -281 0
25 45 281 0
-45 281 1079 0
45 281 785 0
-45 -281 -1079 0
-25 45 -281 -785 0
-25 45 282 -785 0
-25 282 -785 955 0
25 -282 0
-282 785 0
-45 -282 -955 0
283 780 1079 0
283 780 955 0
45 283 780 0
-283 -780 0
-45 -283 -955 -1079 0
277 284 -976 0
56 278 284 0
277 278 284 0
56 284 -976 0
-56 -277 -284 0
-278 -284 976 0
-60 285 -286 0
-60 285 294 0
60 -285 0
-285 286 -294 0
69 -106 286 -287 0
-69 -106 286 -748 0
106 -286 0
69 -286 287 0
-69 -286 748 0
-71 287 -747 0
71 287 -288 0
-71 -287 747 0
71 -287 288 0
98 288 289 293 0
98 288 289 -292 0
-98 -288 0
-288 -289 0
-288 292 -293 0
289 290 -301 746 0
104 289 290 -301 0
-289 301 0
-289 -290 0
-104 -289 -746 0
-102 290 291 0
102 -290 0
-290 -291 0
75 97 291 0
-97 291 745 0
97 291 306 0
-97 -291 -745 0
-75 97 -291 -306 0
-75 97 292 -306 0
-75 292 -306 476 0
75 -292 0
-292 306 0
-97 -292 -476 0
293 301 745 0
293 301 476 0
97 293 301 0
-293 -301 0
-97 -293 -476 -745 0
287 294 -497 0
108 288 294 0
287 288 294 0
108 294 -497 0
-108 -287 -294 0
-288 -294 497 0
76 81 -213 295 -296 0
-76 -295 0
-295 296 0
213 -295 0
-81 -295 0
-62 296 -297 301 0
-62 103 296 -297 0
-296 297 0
62 -296 0
-103 -296 -301 0
297 -298 -305 0
297 -298 306 0
-297 298 0
-297 305 -306 0
298 -303 -562 -591 0
298 -304 -562 -591 0
-298 591 0
-298 562 0
-298 303 304 0
-88 299 300 0
-92 299 300 0
-94 299 300 0
-299 -300 0
88 92 94 -299 0
-63 -65 300 0
65 -300 0
63 -300 0
1 2 0
-1 -2 0
1114 0

